
Gurobi 11.0.3 (linux64) logging started Sat Nov 23 16:25:54 2024

Set parameter LogFile to value "/home/yihong/Coding/OR_SUC/SUC_results_bigM100000_thread4/case24_ieee_rts_theta0.5_epsilon0.025_gurobi_seed770000_num_gen100_N_WDR50_load_scaling_factor1_exact_T24quadra_cost.txt"
Set parameter TimeLimit to value 3600
Gurobi Optimizer version 11.0.3 build v11.0.3rc0 (linux64 - "Ubuntu 20.04.6 LTS")

CPU model: AMD EPYC 7532 32-Core Processor, instruction set [SSE2|AVX|AVX2]
Thread count: 64 physical cores, 128 logical processors, using up to 4 threads

Optimize a model with 50071 rows, 29861 columns and 508398 nonzeros
Model fingerprint: 0x49d864c7
Model has 2400 quadratic constraints
Variable types: 27411 continuous, 2450 integer (2450 binary)
Coefficient statistics:
  Matrix range     [3e-04, 1e+05]
  QMatrix range    [2e-03, 8e-03]
  QLMatrix range   [2e-01, 6e+01]
  Objective range  [1e+00, 1e+00]
  Bounds range     [1e+00, 1e+00]
  RHS range        [1e+00, 1e+05]
Presolve removed 40365 rows and 12968 columns
Presolve time: 0.23s
Presolved: 9706 rows, 16893 columns, 52185 nonzeros
Presolved model has 2400 quadratic constraint(s)
Variable types: 14475 continuous, 2418 integer (2418 binary)

Root relaxation: objective 7.266823e+04, 8226 iterations, 0.14 seconds (0.19 work units)

    Nodes    |    Current Node    |     Objective Bounds      |     Work
 Expl Unexpl |  Obj  Depth IntInf | Incumbent    BestBd   Gap | It/Node Time

     0     0 72668.2274    0    2          - 72668.2274      -     -    0s
     0     0 392250.016    0  589          - 392250.016      -     -    0s
     0     0 456395.738    0  596          - 456395.738      -     -    1s
     0     0 662721.458    0  583          - 662721.458      -     -    1s
     0     0 662759.233    0  412          - 662759.233      -     -    1s
     0     0 662970.074    0  390          - 662970.074      -     -    1s
     0     0 662971.745    0  390          - 662971.745      -     -    1s
     0     0 662971.745    0  390          - 662971.745      -     -    1s
     0     0 662972.619    0  390          - 662972.619      -     -    1s
     0     2 662972.619    0  390          - 662972.619      -     -    2s
H  461   318                    663111.46890 662981.360  0.02%  34.8    4s
*  461   318             157    663111.46890 662981.360  0.02%  34.8    4s

Cutting planes:
  Gomory: 6
  Implied bound: 319
  MIR: 58
  Flow cover: 123

Explored 542 nodes (40313 simplex iterations) in 5.56 seconds (6.55 work units)
Thread count was 4 (of 128 available processors)

Solution count 2: 663111 663111 

Optimal solution found (tolerance 1.00e-03)
Warning: max constraint violation (1.7324e-09) exceeds tolerance
Best objective 6.631114655200e+05, best bound 6.629813602969e+05, gap 0.0196%
